NAME           C:\Bruker\Hvattum\knapsack\Problems\class4\100-10-24.mps
ROWS
 N  OBJ
 L  CONSTR1
 L  CONSTR2
 L  CONSTR3
 L  CONSTR4
 L  CONSTR5
 L  CONSTR6
 L  CONSTR7
 L  CONSTR8
 L  CONSTR9
 L  CONSTR10
COLUMNS
    INT0001   'MARKER'  'INTORG'
    X1        OBJ       764
    X1        CONSTR1   66
    X1        CONSTR2   963
    X1        CONSTR3   627
    X1        CONSTR4   219
    X1        CONSTR5   698
    X1        CONSTR6   560
    X1        CONSTR7   130
    X1        CONSTR8   379
    X1        CONSTR9   376
    X1        CONSTR10  233
    X2        OBJ       816
    X2        CONSTR1   681
    X2        CONSTR2   22
    X2        CONSTR3   731
    X2        CONSTR4   548
    X2        CONSTR5   637
    X2        CONSTR6   72
    X2        CONSTR7   144
    X2        CONSTR8   161
    X2        CONSTR9   148
    X2        CONSTR10  868
    X3        OBJ       812
    X3        CONSTR1   626
    X3        CONSTR2   436
    X3        CONSTR3   787
    X3        CONSTR4   488
    X3        CONSTR5   973
    X3        CONSTR6   254
    X3        CONSTR7   980
    X3        CONSTR8   372
    X3        CONSTR9   715
    X3        CONSTR10  407
    X4        OBJ       712
    X4        CONSTR1   661
    X4        CONSTR2   657
    X4        CONSTR3   5
    X4        CONSTR4   848
    X4        CONSTR5   968
    X4        CONSTR6   417
    X4        CONSTR7   908
    X4        CONSTR8   368
    X4        CONSTR9   42
    X4        CONSTR10  405
    X5        OBJ       518
    X5        CONSTR1   350
    X5        CONSTR2   810
    X5        CONSTR3   100
    X5        CONSTR4   513
    X5        CONSTR5   582
    X5        CONSTR6   687
    X5        CONSTR7   78
    X5        CONSTR8   164
    X5        CONSTR9   752
    X5        CONSTR10  626
    X6        OBJ       741
    X6        CONSTR1   676
    X6        CONSTR2   802
    X6        CONSTR3   244
    X6        CONSTR4   443
    X6        CONSTR5   58
    X6        CONSTR6   360
    X6        CONSTR7   15
    X6        CONSTR8   727
    X6        CONSTR9   688
    X6        CONSTR10  627
    X7        OBJ       806
    X7        CONSTR1   940
    X7        CONSTR2   531
    X7        CONSTR3   650
    X7        CONSTR4   376
    X7        CONSTR5   853
    X7        CONSTR6   884
    X7        CONSTR7   653
    X7        CONSTR8   980
    X7        CONSTR9   549
    X7        CONSTR10  26
    X8        OBJ       798
    X8        CONSTR1   181
    X8        CONSTR2   224
    X8        CONSTR3   674
    X8        CONSTR4   662
    X8        CONSTR5   630
    X8        CONSTR6   26
    X8        CONSTR7   662
    X8        CONSTR8   510
    X8        CONSTR9   641
    X8        CONSTR10  415
    X9        OBJ       1043
    X9        CONSTR1   744
    X9        CONSTR2   982
    X9        CONSTR3   564
    X9        CONSTR4   964
    X9        CONSTR5   808
    X9        CONSTR6   175
    X9        CONSTR7   281
    X9        CONSTR8   915
    X9        CONSTR9   563
    X9        CONSTR10  570
    X10       OBJ       886
    X10       CONSTR1   706
    X10       CONSTR2   379
    X10       CONSTR3   841
    X10       CONSTR4   721
    X10       CONSTR5   877
    X10       CONSTR6   136
    X10       CONSTR7   292
    X10       CONSTR8   973
    X10       CONSTR9   866
    X10       CONSTR10  16
    X11       OBJ       928
    X11       CONSTR1   338
    X11       CONSTR2   542
    X11       CONSTR3   935
    X11       CONSTR4   804
    X11       CONSTR5   94
    X11       CONSTR6   307
    X11       CONSTR7   365
    X11       CONSTR8   165
    X11       CONSTR9   854
    X11       CONSTR10  474
    X12       OBJ       522
    X12       CONSTR1   798
    X12       CONSTR2   141
    X12       CONSTR3   164
    X12       CONSTR4   850
    X12       CONSTR5   278
    X12       CONSTR6   177
    X12       CONSTR7   182
    X12       CONSTR8   265
    X12       CONSTR9   929
    X12       CONSTR10  437
    X13       OBJ       1243
    X13       CONSTR1   738
    X13       CONSTR2   828
    X13       CONSTR3   889
    X13       CONSTR4   986
    X13       CONSTR5   973
    X13       CONSTR6   174
    X13       CONSTR7   418
    X13       CONSTR8   770
    X13       CONSTR9   912
    X13       CONSTR10  916
    X14       OBJ       671
    X14       CONSTR1   778
    X14       CONSTR2   165
    X14       CONSTR3   207
    X14       CONSTR4   478
    X14       CONSTR5   406
    X14       CONSTR6   45
    X14       CONSTR7   844
    X14       CONSTR8   131
    X14       CONSTR9   147
    X14       CONSTR10  816
    X15       OBJ       813
    X15       CONSTR1   226
    X15       CONSTR2   42
    X15       CONSTR3   11
    X15       CONSTR4   746
    X15       CONSTR5   655
    X15       CONSTR6   94
    X15       CONSTR7   265
    X15       CONSTR8   775
    X15       CONSTR9   858
    X15       CONSTR10  27
    X16       OBJ       701
    X16       CONSTR1   817
    X16       CONSTR2   107
    X16       CONSTR3   222
    X16       CONSTR4   929
    X16       CONSTR5   674
    X16       CONSTR6   226
    X16       CONSTR7   996
    X16       CONSTR8   140
    X16       CONSTR9   833
    X16       CONSTR10  201
    X17       OBJ       1041
    X17       CONSTR1   969
    X17       CONSTR2   846
    X17       CONSTR3   336
    X17       CONSTR4   617
    X17       CONSTR5   52
    X17       CONSTR6   404
    X17       CONSTR7   288
    X17       CONSTR8   656
    X17       CONSTR9   585
    X17       CONSTR10  721
    X18       OBJ       645
    X18       CONSTR1   72
    X18       CONSTR2   899
    X18       CONSTR3   733
    X18       CONSTR4   336
    X18       CONSTR5   40
    X18       CONSTR6   358
    X18       CONSTR7   237
    X18       CONSTR8   773
    X18       CONSTR9   458
    X18       CONSTR10  291
    X19       OBJ       782
    X19       CONSTR1   121
    X19       CONSTR2   24
    X19       CONSTR3   9
    X19       CONSTR4   895
    X19       CONSTR5   351
    X19       CONSTR6   272
    X19       CONSTR7   103
    X19       CONSTR8   467
    X19       CONSTR9   732
    X19       CONSTR10  563
    X20       OBJ       488
    X20       CONSTR1   482
    X20       CONSTR2   330
    X20       CONSTR3   834
    X20       CONSTR4   424
    X20       CONSTR5   171
    X20       CONSTR6   531
    X20       CONSTR7   826
    X20       CONSTR8   253
    X20       CONSTR9   578
    X20       CONSTR10  151
    X21       OBJ       629
    X21       CONSTR1   395
    X21       CONSTR2   960
    X21       CONSTR3   18
    X21       CONSTR4   811
    X21       CONSTR5   714
    X21       CONSTR6   845
    X21       CONSTR7   217
    X21       CONSTR8   300
    X21       CONSTR9   886
    X21       CONSTR10  522
    X22       OBJ       937
    X22       CONSTR1   44
    X22       CONSTR2   456
    X22       CONSTR3   909
    X22       CONSTR4   350
    X22       CONSTR5   201
    X22       CONSTR6   783
    X22       CONSTR7   167
    X22       CONSTR8   970
    X22       CONSTR9   453
    X22       CONSTR10  210
    X23       OBJ       486
    X23       CONSTR1   277
    X23       CONSTR2   9
    X23       CONSTR3   341
    X23       CONSTR4   353
    X23       CONSTR5   491
    X23       CONSTR6   949
    X23       CONSTR7   406
    X23       CONSTR8   570
    X23       CONSTR9   385
    X23       CONSTR10  634
    X24       OBJ       642
    X24       CONSTR1   269
    X24       CONSTR2   210
    X24       CONSTR3   908
    X24       CONSTR4   904
    X24       CONSTR5   77
    X24       CONSTR6   354
    X24       CONSTR7   907
    X24       CONSTR8   155
    X24       CONSTR9   119
    X24       CONSTR10  934
    X25       OBJ       781
    X25       CONSTR1   651
    X25       CONSTR2   234
    X25       CONSTR3   267
    X25       CONSTR4   99
    X25       CONSTR5   624
    X25       CONSTR6   84
    X25       CONSTR7   186
    X25       CONSTR8   546
    X25       CONSTR9   52
    X25       CONSTR10  772
    X26       OBJ       751
    X26       CONSTR1   784
    X26       CONSTR2   207
    X26       CONSTR3   295
    X26       CONSTR4   230
    X26       CONSTR5   154
    X26       CONSTR6   769
    X26       CONSTR7   305
    X26       CONSTR8   54
    X26       CONSTR9   846
    X26       CONSTR10  277
    X27       OBJ       521
    X27       CONSTR1   444
    X27       CONSTR2   488
    X27       CONSTR3   579
    X27       CONSTR4   336
    X27       CONSTR5   617
    X27       CONSTR6   889
    X27       CONSTR7   84
    X27       CONSTR8   734
    X27       CONSTR9   197
    X27       CONSTR10  471
    X28       OBJ       972
    X28       CONSTR1   864
    X28       CONSTR2   581
    X28       CONSTR3   674
    X28       CONSTR4   283
    X28       CONSTR5   453
    X28       CONSTR6   211
    X28       CONSTR7   716
    X28       CONSTR8   814
    X28       CONSTR9   916
    X28       CONSTR10  783
    X29       OBJ       578
    X29       CONSTR1   87
    X29       CONSTR2   459
    X29       CONSTR3   80
    X29       CONSTR4   266
    X29       CONSTR5   281
    X29       CONSTR6   526
    X29       CONSTR7   574
    X29       CONSTR8   384
    X29       CONSTR9   183
    X29       CONSTR10  743
    X30       OBJ       792
    X30       CONSTR1   781
    X30       CONSTR2   51
    X30       CONSTR3   237
    X30       CONSTR4   287
    X30       CONSTR5   651
    X30       CONSTR6   503
    X30       CONSTR7   325
    X30       CONSTR8   784
    X30       CONSTR9   866
    X30       CONSTR10  615
    X31       OBJ       1087
    X31       CONSTR1   944
    X31       CONSTR2   773
    X31       CONSTR3   873
    X31       CONSTR4   979
    X31       CONSTR5   710
    X31       CONSTR6   778
    X31       CONSTR7   11
    X31       CONSTR8   867
    X31       CONSTR9   967
    X31       CONSTR10  970
    X32       OBJ       809
    X32       CONSTR1   340
    X32       CONSTR2   552
    X32       CONSTR3   772
    X32       CONSTR4   443
    X32       CONSTR5   324
    X32       CONSTR6   870
    X32       CONSTR7   740
    X32       CONSTR8   216
    X32       CONSTR9   560
    X32       CONSTR10  755
    X33       OBJ       574
    X33       CONSTR1   348
    X33       CONSTR2   785
    X33       CONSTR3   331
    X33       CONSTR4   440
    X33       CONSTR5   54
    X33       CONSTR6   914
    X33       CONSTR7   472
    X33       CONSTR8   128
    X33       CONSTR9   669
    X33       CONSTR10  110
    X34       OBJ       940
    X34       CONSTR1   42
    X34       CONSTR2   646
    X34       CONSTR3   900
    X34       CONSTR4   821
    X34       CONSTR5   620
    X34       CONSTR6   897
    X34       CONSTR7   758
    X34       CONSTR8   850
    X34       CONSTR9   352
    X34       CONSTR10  517
    X35       OBJ       1030
    X35       CONSTR1   871
    X35       CONSTR2   813
    X35       CONSTR3   636
    X35       CONSTR4   380
    X35       CONSTR5   724
    X35       CONSTR6   30
    X35       CONSTR7   690
    X35       CONSTR8   459
    X35       CONSTR9   83
    X35       CONSTR10  670
    X36       OBJ       812
    X36       CONSTR1   738
    X36       CONSTR2   680
    X36       CONSTR3   2
    X36       CONSTR4   614
    X36       CONSTR5   584
    X36       CONSTR6   610
    X36       CONSTR7   667
    X36       CONSTR8   319
    X36       CONSTR9   539
    X36       CONSTR10  990
    X37       OBJ       776
    X37       CONSTR1   646
    X37       CONSTR2   835
    X37       CONSTR3   496
    X37       CONSTR4   731
    X37       CONSTR5   582
    X37       CONSTR6   722
    X37       CONSTR7   742
    X37       CONSTR8   444
    X37       CONSTR9   950
    X37       CONSTR10  676
    X38       OBJ       764
    X38       CONSTR1   585
    X38       CONSTR2   730
    X38       CONSTR3   223
    X38       CONSTR4   264
    X38       CONSTR5   572
    X38       CONSTR6   521
    X38       CONSTR7   695
    X38       CONSTR8   348
    X38       CONSTR9   246
    X38       CONSTR10  451
    X39       OBJ       439
    X39       CONSTR1   212
    X39       CONSTR2   450
    X39       CONSTR3   987
    X39       CONSTR4   187
    X39       CONSTR5   721
    X39       CONSTR6   444
    X39       CONSTR7   293
    X39       CONSTR8   204
    X39       CONSTR9   362
    X39       CONSTR10  379
    X40       OBJ       574
    X40       CONSTR1   816
    X40       CONSTR2   636
    X40       CONSTR3   194
    X40       CONSTR4   723
    X40       CONSTR5   111
    X40       CONSTR6   692
    X40       CONSTR7   899
    X40       CONSTR8   328
    X40       CONSTR9   422
    X40       CONSTR10  693
    X41       OBJ       1081
    X41       CONSTR1   17
    X41       CONSTR2   458
    X41       CONSTR3   901
    X41       CONSTR4   897
    X41       CONSTR5   998
    X41       CONSTR6   234
    X41       CONSTR7   955
    X41       CONSTR8   915
    X41       CONSTR9   85
    X41       CONSTR10  402
    X42       OBJ       1139
    X42       CONSTR1   834
    X42       CONSTR2   665
    X42       CONSTR3   827
    X42       CONSTR4   316
    X42       CONSTR5   378
    X42       CONSTR6   567
    X42       CONSTR7   859
    X42       CONSTR8   840
    X42       CONSTR9   738
    X42       CONSTR10  590
    X43       OBJ       1089
    X43       CONSTR1   783
    X43       CONSTR2   499
    X43       CONSTR3   230
    X43       CONSTR4   427
    X43       CONSTR5   936
    X43       CONSTR6   460
    X43       CONSTR7   461
    X43       CONSTR8   826
    X43       CONSTR9   644
    X43       CONSTR10  804
    X44       OBJ       807
    X44       CONSTR1   513
    X44       CONSTR2   919
    X44       CONSTR3   671
    X44       CONSTR4   140
    X44       CONSTR5   611
    X44       CONSTR6   349
    X44       CONSTR7   577
    X44       CONSTR8   826
    X44       CONSTR9   525
    X44       CONSTR10  848
    X45       OBJ       657
    X45       CONSTR1   406
    X45       CONSTR2   668
    X45       CONSTR3   252
    X45       CONSTR4   854
    X45       CONSTR5   652
    X45       CONSTR6   547
    X45       CONSTR7   747
    X45       CONSTR8   589
    X45       CONSTR9   104
    X45       CONSTR10  635
    X46       OBJ       900
    X46       CONSTR1   659
    X46       CONSTR2   485
    X46       CONSTR3   731
    X46       CONSTR4   415
    X46       CONSTR5   268
    X46       CONSTR6   925
    X46       CONSTR7   644
    X46       CONSTR8   963
    X46       CONSTR9   611
    X46       CONSTR10  927
    X47       OBJ       699
    X47       CONSTR1   69
    X47       CONSTR2   181
    X47       CONSTR3   604
    X47       CONSTR4   703
    X47       CONSTR5   64
    X47       CONSTR6   942
    X47       CONSTR7   853
    X47       CONSTR8   275
    X47       CONSTR9   889
    X47       CONSTR10  741
    X48       OBJ       534
    X48       CONSTR1   318
    X48       CONSTR2   474
    X48       CONSTR3   104
    X48       CONSTR4   801
    X48       CONSTR5   460
    X48       CONSTR6   334
    X48       CONSTR7   186
    X48       CONSTR8   800
    X48       CONSTR9   558
    X48       CONSTR10  240
    X49       OBJ       989
    X49       CONSTR1   287
    X49       CONSTR2   879
    X49       CONSTR3   64
    X49       CONSTR4   347
    X49       CONSTR5   251
    X49       CONSTR6   262
    X49       CONSTR7   588
    X49       CONSTR8   751
    X49       CONSTR9   695
    X49       CONSTR10  860
    X50       OBJ       812
    X50       CONSTR1   198
    X50       CONSTR2   119
    X50       CONSTR3   505
    X50       CONSTR4   532
    X50       CONSTR5   906
    X50       CONSTR6   634
    X50       CONSTR7   548
    X50       CONSTR8   424
    X50       CONSTR9   414
    X50       CONSTR10  948
    X51       OBJ       862
    X51       CONSTR1   328
    X51       CONSTR2   821
    X51       CONSTR3   79
    X51       CONSTR4   322
    X51       CONSTR5   767
    X51       CONSTR6   419
    X51       CONSTR7   521
    X51       CONSTR8   743
    X51       CONSTR9   26
    X51       CONSTR10  82
    X52       OBJ       518
    X52       CONSTR1   774
    X52       CONSTR2   851
    X52       CONSTR3   765
    X52       CONSTR4   232
    X52       CONSTR5   776
    X52       CONSTR6   461
    X52       CONSTR7   173
    X52       CONSTR8   380
    X52       CONSTR9   86
    X52       CONSTR10  527
    X53       OBJ       580
    X53       CONSTR1   81
    X53       CONSTR2   788
    X53       CONSTR3   744
    X53       CONSTR4   324
    X53       CONSTR5   45
    X53       CONSTR6   169
    X53       CONSTR7   504
    X53       CONSTR8   744
    X53       CONSTR9   206
    X53       CONSTR10  260
    X54       OBJ       878
    X54       CONSTR1   185
    X54       CONSTR2   72
    X54       CONSTR3   496
    X54       CONSTR4   178
    X54       CONSTR5   953
    X54       CONSTR6   398
    X54       CONSTR7   989
    X54       CONSTR8   716
    X54       CONSTR9   575
    X54       CONSTR10  526
    X55       OBJ       602
    X55       CONSTR1   828
    X55       CONSTR2   130
    X55       CONSTR3   632
    X55       CONSTR4   88
    X55       CONSTR5   612
    X55       CONSTR6   125
    X55       CONSTR7   255
    X55       CONSTR8   484
    X55       CONSTR9   747
    X55       CONSTR10  479
    X56       OBJ       519
    X56       CONSTR1   742
    X56       CONSTR2   64
    X56       CONSTR3   410
    X56       CONSTR4   439
    X56       CONSTR5   587
    X56       CONSTR6   893
    X56       CONSTR7   789
    X56       CONSTR8   284
    X56       CONSTR9   87
    X56       CONSTR10  282
    X57       OBJ       664
    X57       CONSTR1   180
    X57       CONSTR2   107
    X57       CONSTR3   942
    X57       CONSTR4   824
    X57       CONSTR5   109
    X57       CONSTR6   291
    X57       CONSTR7   429
    X57       CONSTR8   696
    X57       CONSTR9   970
    X57       CONSTR10  559
    X58       OBJ       971
    X58       CONSTR1   556
    X58       CONSTR2   1
    X58       CONSTR3   205
    X58       CONSTR4   147
    X58       CONSTR5   969
    X58       CONSTR6   666
    X58       CONSTR7   625
    X58       CONSTR8   873
    X58       CONSTR9   358
    X58       CONSTR10  882
    X59       OBJ       772
    X59       CONSTR1   182
    X59       CONSTR2   740
    X59       CONSTR3   786
    X59       CONSTR4   633
    X59       CONSTR5   863
    X59       CONSTR6   655
    X59       CONSTR7   826
    X59       CONSTR8   771
    X59       CONSTR9   581
    X59       CONSTR10  724
    X60       OBJ       619
    X60       CONSTR1   921
    X60       CONSTR2   946
    X60       CONSTR3   682
    X60       CONSTR4   477
    X60       CONSTR5   799
    X60       CONSTR6   462
    X60       CONSTR7   731
    X60       CONSTR8   310
    X60       CONSTR9   115
    X60       CONSTR10  256
    X61       OBJ       1103
    X61       CONSTR1   468
    X61       CONSTR2   969
    X61       CONSTR3   863
    X61       CONSTR4   407
    X61       CONSTR5   880
    X61       CONSTR6   927
    X61       CONSTR7   177
    X61       CONSTR8   979
    X61       CONSTR9   709
    X61       CONSTR10  281
    X62       OBJ       770
    X62       CONSTR1   213
    X62       CONSTR2   162
    X62       CONSTR3   463
    X62       CONSTR4   501
    X62       CONSTR5   750
    X62       CONSTR6   484
    X62       CONSTR7   224
    X62       CONSTR8   43
    X62       CONSTR9   477
    X62       CONSTR10  616
    X63       OBJ       832
    X63       CONSTR1   37
    X63       CONSTR2   236
    X63       CONSTR3   96
    X63       CONSTR4   703
    X63       CONSTR5   825
    X63       CONSTR6   492
    X63       CONSTR7   338
    X63       CONSTR8   404
    X63       CONSTR9   228
    X63       CONSTR10  309
    X64       OBJ       712
    X64       CONSTR1   302
    X64       CONSTR2   457
    X64       CONSTR3   554
    X64       CONSTR4   627
    X64       CONSTR5   58
    X64       CONSTR6   450
    X64       CONSTR7   429
    X64       CONSTR8   403
    X64       CONSTR9   127
    X64       CONSTR10  943
    X65       OBJ       518
    X65       CONSTR1   492
    X65       CONSTR2   729
    X65       CONSTR3   216
    X65       CONSTR4   646
    X65       CONSTR5   566
    X65       CONSTR6   803
    X65       CONSTR7   135
    X65       CONSTR8   185
    X65       CONSTR9   161
    X65       CONSTR10  741
    X66       OBJ       917
    X66       CONSTR1   315
    X66       CONSTR2   781
    X66       CONSTR3   554
    X66       CONSTR4   939
    X66       CONSTR5   191
    X66       CONSTR6   253
    X66       CONSTR7   621
    X66       CONSTR8   908
    X66       CONSTR9   899
    X66       CONSTR10  165
    X67       OBJ       817
    X67       CONSTR1   846
    X67       CONSTR2   731
    X67       CONSTR3   949
    X67       CONSTR4   756
    X67       CONSTR5   186
    X67       CONSTR6   817
    X67       CONSTR7   166
    X67       CONSTR8   194
    X67       CONSTR9   301
    X67       CONSTR10  90
    X68       OBJ       786
    X68       CONSTR1   845
    X68       CONSTR2   915
    X68       CONSTR3   170
    X68       CONSTR4   206
    X68       CONSTR5   57
    X68       CONSTR6   187
    X68       CONSTR7   856
    X68       CONSTR8   36
    X68       CONSTR9   257
    X68       CONSTR10  339
    X69       OBJ       996
    X69       CONSTR1   831
    X69       CONSTR2   680
    X69       CONSTR3   501
    X69       CONSTR4   897
    X69       CONSTR5   332
    X69       CONSTR6   669
    X69       CONSTR7   867
    X69       CONSTR8   586
    X69       CONSTR9   799
    X69       CONSTR10  131
    X70       OBJ       933
    X70       CONSTR1   148
    X70       CONSTR2   936
    X70       CONSTR3   96
    X70       CONSTR4   425
    X70       CONSTR5   913
    X70       CONSTR6   452
    X70       CONSTR7   864
    X70       CONSTR8   640
    X70       CONSTR9   250
    X70       CONSTR10  657
    X71       OBJ       1021
    X71       CONSTR1   145
    X71       CONSTR2   866
    X71       CONSTR3   856
    X71       CONSTR4   109
    X71       CONSTR5   919
    X71       CONSTR6   578
    X71       CONSTR7   981
    X71       CONSTR8   838
    X71       CONSTR9   854
    X71       CONSTR10  580
    X72       OBJ       899
    X72       CONSTR1   399
    X72       CONSTR2   347
    X72       CONSTR3   284
    X72       CONSTR4   993
    X72       CONSTR5   232
    X72       CONSTR6   548
    X72       CONSTR7   319
    X72       CONSTR8   734
    X72       CONSTR9   584
    X72       CONSTR10  933
    X73       OBJ       703
    X73       CONSTR1   95
    X73       CONSTR2   895
    X73       CONSTR3   393
    X73       CONSTR4   292
    X73       CONSTR5   574
    X73       CONSTR6   170
    X73       CONSTR7   804
    X73       CONSTR8   260
    X73       CONSTR9   973
    X73       CONSTR10  180
    X74       OBJ       471
    X74       CONSTR1   7
    X74       CONSTR2   20
    X74       CONSTR3   114
    X74       CONSTR4   626
    X74       CONSTR5   608
    X74       CONSTR6   663
    X74       CONSTR7   401
    X74       CONSTR8   496
    X74       CONSTR9   680
    X74       CONSTR10  752
    X75       OBJ       1043
    X75       CONSTR1   981
    X75       CONSTR2   645
    X75       CONSTR3   491
    X75       CONSTR4   771
    X75       CONSTR5   848
    X75       CONSTR6   365
    X75       CONSTR7   679
    X75       CONSTR8   988
    X75       CONSTR9   555
    X75       CONSTR10  634
    X76       OBJ       709
    X76       CONSTR1   671
    X76       CONSTR2   643
    X76       CONSTR3   826
    X76       CONSTR4   29
    X76       CONSTR5   143
    X76       CONSTR6   54
    X76       CONSTR7   713
    X76       CONSTR8   552
    X76       CONSTR9   725
    X76       CONSTR10  933
    X77       OBJ       906
    X77       CONSTR1   418
    X77       CONSTR2   750
    X77       CONSTR3   589
    X77       CONSTR4   762
    X77       CONSTR5   887
    X77       CONSTR6   286
    X77       CONSTR7   78
    X77       CONSTR8   149
    X77       CONSTR9   217
    X77       CONSTR10  285
    X78       OBJ       633
    X78       CONSTR1   377
    X78       CONSTR2   273
    X78       CONSTR3   217
    X78       CONSTR4   785
    X78       CONSTR5   866
    X78       CONSTR6   61
    X78       CONSTR7   633
    X78       CONSTR8   64
    X78       CONSTR9   503
    X78       CONSTR10  313
    X79       OBJ       553
    X79       CONSTR1   291
    X79       CONSTR2   294
    X79       CONSTR3   616
    X79       CONSTR4   448
    X79       CONSTR5   234
    X79       CONSTR6   848
    X79       CONSTR7   374
    X79       CONSTR8   624
    X79       CONSTR9   548
    X79       CONSTR10  606
    X80       OBJ       570
    X80       CONSTR1   76
    X80       CONSTR2   715
    X80       CONSTR3   713
    X80       CONSTR4   664
    X80       CONSTR5   764
    X80       CONSTR6   424
    X80       CONSTR7   723
    X80       CONSTR8   255
    X80       CONSTR9   149
    X80       CONSTR10  360
    X81       OBJ       628
    X81       CONSTR1   816
    X81       CONSTR2   661
    X81       CONSTR3   297
    X81       CONSTR4   578
    X81       CONSTR5   657
    X81       CONSTR6   43
    X81       CONSTR7   116
    X81       CONSTR8   775
    X81       CONSTR9   216
    X81       CONSTR10  589
    X82       OBJ       791
    X82       CONSTR1   472
    X82       CONSTR2   910
    X82       CONSTR3   159
    X82       CONSTR4   361
    X82       CONSTR5   284
    X82       CONSTR6   628
    X82       CONSTR7   537
    X82       CONSTR8   703
    X82       CONSTR9   477
    X82       CONSTR10  72
    X83       OBJ       932
    X83       CONSTR1   509
    X83       CONSTR2   571
    X83       CONSTR3   578
    X83       CONSTR4   124
    X83       CONSTR5   633
    X83       CONSTR6   235
    X83       CONSTR7   204
    X83       CONSTR8   847
    X83       CONSTR9   719
    X83       CONSTR10  978
    X84       OBJ       660
    X84       CONSTR1   412
    X84       CONSTR2   165
    X84       CONSTR3   264
    X84       CONSTR4   478
    X84       CONSTR5   619
    X84       CONSTR6   323
    X84       CONSTR7   523
    X84       CONSTR8   734
    X84       CONSTR9   179
    X84       CONSTR10  871
    X85       OBJ       928
    X85       CONSTR1   21
    X85       CONSTR2   2
    X85       CONSTR3   410
    X85       CONSTR4   765
    X85       CONSTR5   251
    X85       CONSTR6   322
    X85       CONSTR7   688
    X85       CONSTR8   887
    X85       CONSTR9   980
    X85       CONSTR10  518
    X86       OBJ       842
    X86       CONSTR1   633
    X86       CONSTR2   226
    X86       CONSTR3   740
    X86       CONSTR4   53
    X86       CONSTR5   776
    X86       CONSTR6   307
    X86       CONSTR7   463
    X86       CONSTR8   913
    X86       CONSTR9   436
    X86       CONSTR10  395
    X87       OBJ       852
    X87       CONSTR1   173
    X87       CONSTR2   7
    X87       CONSTR3   452
    X87       CONSTR4   587
    X87       CONSTR5   443
    X87       CONSTR6   438
    X87       CONSTR7   667
    X87       CONSTR8   269
    X87       CONSTR9   262
    X87       CONSTR10  354
    X88       OBJ       591
    X88       CONSTR1   472
    X88       CONSTR2   150
    X88       CONSTR3   670
    X88       CONSTR4   250
    X88       CONSTR5   549
    X88       CONSTR6   426
    X88       CONSTR7   424
    X88       CONSTR8   518
    X88       CONSTR9   367
    X88       CONSTR10  957
    X89       OBJ       539
    X89       CONSTR1   622
    X89       CONSTR2   625
    X89       CONSTR3   377
    X89       CONSTR4   872
    X89       CONSTR5   438
    X89       CONSTR6   394
    X89       CONSTR7   843
    X89       CONSTR8   428
    X89       CONSTR9   609
    X89       CONSTR10  29
    X90       OBJ       719
    X90       CONSTR1   265
    X90       CONSTR2   531
    X90       CONSTR3   602
    X90       CONSTR4   383
    X90       CONSTR5   437
    X90       CONSTR6   598
    X90       CONSTR7   948
    X90       CONSTR8   526
    X90       CONSTR9   511
    X90       CONSTR10  767
    X91       OBJ       827
    X91       CONSTR1   229
    X91       CONSTR2   745
    X91       CONSTR3   756
    X91       CONSTR4   751
    X91       CONSTR5   269
    X91       CONSTR6   561
    X91       CONSTR7   367
    X91       CONSTR8   273
    X91       CONSTR9   793
    X91       CONSTR10  73
    X92       OBJ       624
    X92       CONSTR1   890
    X92       CONSTR2   92
    X92       CONSTR3   22
    X92       CONSTR4   579
    X92       CONSTR5   219
    X92       CONSTR6   396
    X92       CONSTR7   226
    X92       CONSTR8   863
    X92       CONSTR9   585
    X92       CONSTR10  479
    X93       OBJ       811
    X93       CONSTR1   229
    X93       CONSTR2   486
    X93       CONSTR3   144
    X93       CONSTR4   753
    X93       CONSTR5   174
    X93       CONSTR6   851
    X93       CONSTR7   219
    X93       CONSTR8   447
    X93       CONSTR9   479
    X93       CONSTR10  914
    X94       OBJ       988
    X94       CONSTR1   126
    X94       CONSTR2   713
    X94       CONSTR3   79
    X94       CONSTR4   473
    X94       CONSTR5   630
    X94       CONSTR6   533
    X94       CONSTR7   950
    X94       CONSTR8   8
    X94       CONSTR9   881
    X94       CONSTR10  624
    X95       OBJ       835
    X95       CONSTR1   947
    X95       CONSTR2   686
    X95       CONSTR3   325
    X95       CONSTR4   604
    X95       CONSTR5   191
    X95       CONSTR6   853
    X95       CONSTR7   52
    X95       CONSTR8   562
    X95       CONSTR9   818
    X95       CONSTR10  578
    X96       OBJ       684
    X96       CONSTR1   167
    X96       CONSTR2   839
    X96       CONSTR3   564
    X96       CONSTR4   215
    X96       CONSTR5   569
    X96       CONSTR6   134
    X96       CONSTR7   85
    X96       CONSTR8   820
    X96       CONSTR9   748
    X96       CONSTR10  169
    X97       OBJ       586
    X97       CONSTR1   4
    X97       CONSTR2   380
    X97       CONSTR3   83
    X97       CONSTR4   307
    X97       CONSTR5   832
    X97       CONSTR6   17
    X97       CONSTR7   399
    X97       CONSTR8   310
    X97       CONSTR9   317
    X97       CONSTR10  126
    X98       OBJ       871
    X98       CONSTR1   187
    X98       CONSTR2   202
    X98       CONSTR3   278
    X98       CONSTR4   173
    X98       CONSTR5   102
    X98       CONSTR6   252
    X98       CONSTR7   998
    X98       CONSTR8   631
    X98       CONSTR9   837
    X98       CONSTR10  563
    X99       OBJ       655
    X99       CONSTR1   952
    X99       CONSTR2   911
    X99       CONSTR3   376
    X99       CONSTR4   871
    X99       CONSTR5   599
    X99       CONSTR6   445
    X99       CONSTR7   742
    X99       CONSTR8   24
    X99       CONSTR9   147
    X99       CONSTR10  309
    X100      OBJ       813
    X100      CONSTR1   356
    X100      CONSTR2   633
    X100      CONSTR3   389
    X100      CONSTR4   840
    X100      CONSTR5   275
    X100      CONSTR6   43
    X100      CONSTR7   21
    X100      CONSTR8   511
    X100      CONSTR9   667
    X100      CONSTR10  276
    INT0001   'MARKER'  'INTEND'
RHS
    RHS10001  CONSTR1   34806
    RHS10001  CONSTR2   38798
    RHS10001  CONSTR3   35281
    RHS10001  CONSTR4   39785
    RHS10001  CONSTR5   38870
    RHS10001  CONSTR6   34255
    RHS10001  CONSTR7   37976
    RHS10001  CONSTR8   39761
    RHS10001  CONSTR9   39238
    RHS10001  CONSTR10  39017
BOUNDS
 BV BND       X1        .00
 BV BND       X2        .00
 BV BND       X3        .00
 BV BND       X4        .00
 BV BND       X5        .00
 BV BND       X6        .00
 BV BND       X7        .00
 BV BND       X8        .00
 BV BND       X9        .00
 BV BND       X10       .00
 BV BND       X11       .00
 BV BND       X12       .00
 BV BND       X13       .00
 BV BND       X14       .00
 BV BND       X15       .00
 BV BND       X16       .00
 BV BND       X17       .00
 BV BND       X18       .00
 BV BND       X19       .00
 BV BND       X20       .00
 BV BND       X21       .00
 BV BND       X22       .00
 BV BND       X23       .00
 BV BND       X24       .00
 BV BND       X25       .00
 BV BND       X26       .00
 BV BND       X27       .00
 BV BND       X28       .00
 BV BND       X29       .00
 BV BND       X30       .00
 BV BND       X31       .00
 BV BND       X32       .00
 BV BND       X33       .00
 BV BND       X34       .00
 BV BND       X35       .00
 BV BND       X36       .00
 BV BND       X37       .00
 BV BND       X38       .00
 BV BND       X39       .00
 BV BND       X40       .00
 BV BND       X41       .00
 BV BND       X42       .00
 BV BND       X43       .00
 BV BND       X44       .00
 BV BND       X45       .00
 BV BND       X46       .00
 BV BND       X47       .00
 BV BND       X48       .00
 BV BND       X49       .00
 BV BND       X50       .00
 BV BND       X51       .00
 BV BND       X52       .00
 BV BND       X53       .00
 BV BND       X54       .00
 BV BND       X55       .00
 BV BND       X56       .00
 BV BND       X57       .00
 BV BND       X58       .00
 BV BND       X59       .00
 BV BND       X60       .00
 BV BND       X61       .00
 BV BND       X62       .00
 BV BND       X63       .00
 BV BND       X64       .00
 BV BND       X65       .00
 BV BND       X66       .00
 BV BND       X67       .00
 BV BND       X68       .00
 BV BND       X69       .00
 BV BND       X70       .00
 BV BND       X71       .00
 BV BND       X72       .00
 BV BND       X73       .00
 BV BND       X74       .00
 BV BND       X75       .00
 BV BND       X76       .00
 BV BND       X77       .00
 BV BND       X78       .00
 BV BND       X79       .00
 BV BND       X80       .00
 BV BND       X81       .00
 BV BND       X82       .00
 BV BND       X83       .00
 BV BND       X84       .00
 BV BND       X85       .00
 BV BND       X86       .00
 BV BND       X87       .00
 BV BND       X88       .00
 BV BND       X89       .00
 BV BND       X90       .00
 BV BND       X91       .00
 BV BND       X92       .00
 BV BND       X93       .00
 BV BND       X94       .00
 BV BND       X95       .00
 BV BND       X96       .00
 BV BND       X97       .00
 BV BND       X98       .00
 BV BND       X99       .00
 BV BND       X100      .00
ENDATA
